40 10
9 174
8 93
5 854
4 928
6 363
3 182
1 950
4 728
4 188
1 236
8 169
6 382
7 174
6 15
3 893
2 302
6 263
3 784
9 293
7 213
1 83
3 392
2 696
9 873
3 236
5 2
8 147
4 624
2 913
2 633
6 709
7 863
5 222
3 987
7 204
1 529
4 110
3 331
8 153
5 363
